\ENCODING=ISO-8859-1
\Problem name: ilog.cplex

Minimize
 obj1: 90759 x1 + 96545 x2 + 109917 x3 + 99744 x4 + 104856 x5 + 109709 x6
       + 90436 x7 + 98932 x8 + 91328 x9 + 94439 x10 + 104286 x11 + 108375 x12
       + 96718 x13 + 109512 x14 + 97566 x15 + 90785 x16 + 98212 x17
       + 104544 x18 + 101498 x19 + 93712 x20 + 90511 x21 + 104977 x22
       + 95158 x23 + 108607 x24 + 103767 x25 + 90729 x26 + 104353 x27
       + 97564 x28 + 91450 x29 + 100087 x30 + 90417 x31 + 92149 x32 + 93201 x33
       + 98751 x34 + 104277 x35 + 104847 x36 + 99715 x37 + 102832 x38
       + 108334 x39 + 100385 x40 + 104135 x41 + 94186 x42 + 101552 x43
       + 91576 x44 + 97644 x45 + 96621 x46 + 101597 x47 + 92286 x48 + 95671 x49
       + 92336 x50 + 109342 x51 + 91631 x52 + 99796 x53 + 106428 x54
       + 102710 x55 + 100485 x56 + 96043 x57 + 108060 x58 + 105140 x59
       + 93973 x60 + 99333 x61 + 105998 x62 + 95633 x63 + 107959 x64
       + 103890 x65 + 98085 x66 + 109016 x67 + 106192 x68 + 93148 x69
       + 109270 x70 + 103579 x71 + 101054 x72 + 108194 x73 + 90116 x74
       + 99286 x75 + 101549 x76 + 96858 x77 + 108083 x78 + 94801 x79
       + 101622 x80 + 106090 x81 + 100060 x82 + 108020 x83 + 96607 x84
       + 94502 x85 + 99659 x86 + 101831 x87 + 95904 x88 + 106815 x89
       + 93409 x90 + 94508 x91 + 105986 x92 + 107428 x93 + 96265 x94
       + 92440 x95 + 109377 x96 + 96460 x97 + 108751 x98 + 101843 x99
       + 102477 x100 + 97932 x101 + 100415 x102 + 108570 x103 + 91706 x104
       + 105704 x105 + 96889 x106 + 96074 x107 + 100162 x108 + 101077 x109
       + 102356 x110 + 94277 x111 + 97416 x112 + 107550 x113 + 97977 x114
       + 107301 x115 + 108480 x116 + 107885 x117 + 103594 x118 + 107445 x119
       + 100330 x120 + 107550 x121 + 109352 x122 + 108803 x123 + 93111 x124
       + 91374 x125 + 91608 x126 + 104183 x127 + 99684 x128 + 96434 x129
       + 109581 x130 + 97836 x131 + 108627 x132 + 92030 x133 + 91611 x134
       + 94606 x135 + 90925 x136 + 91058 x137 + 102870 x138 + 109916 x139
       + 96440 x140 + 96179 x141 + 99945 x142 + 104368 x143 + 92637 x144
       + 108889 x145 + 102019 x146 + 101793 x147 + 105110 x148 + 99903 x149
       + 103165 x150 + 95830 x151 + 91277 x152 + 93736 x153 + 94205 x154
       + 91620 x155 + 106336 x156 + 104781 x157 + 101698 x158 + 92319 x159
       + 103380 x160 + 90992 x161 + 92137 x162 + 101364 x163 + 104047 x164
       + 107154 x165 + 98182 x166 + 94041 x167 + 97212 x168 + 107407 x169
       + 103577 x170 + 103236 x171 + 90773 x172 + 109077 x173 + 108119 x174
       + 106865 x175 + 93105 x176 + 103451 x177 + 108370 x178 + 102911 x179
       + 101271 x180 + 104650 x181 + 98662 x182 + 108529 x183 + 104394 x184
       + 101011 x185 + 103533 x186 + 100783 x187 + 97457 x188 + 107325 x189
       + 104909 x190 + 108294 x191 + 103331 x192 + 90841 x193 + 105225 x194
       + 105483 x195 + 98983 x196 + 99111 x197 + 91086 x198 + 94035 x199
       + 95564 x200 + 91493 x201 + 108999 x202 + 96927 x203 + 108093 x204
       + 102656 x205 + 96709 x206 + 94376 x207 + 103322 x208 + 94504 x209
       + 105665 x210 + 102447 x211 + 98212 x212 + 97074 x213 + 95695 x214
       + 103410 x215 + 99161 x216 + 95879 x217 + 94544 x218 + 109324 x219
       + 94899 x220 + 99121 x221 + 90761 x222 + 90686 x223 + 101022 x224
       + 104825 x225 + 94351 x226 + 102083 x227 + 91527 x228 + 90256 x229
       + 98009 x230 + 93707 x231 + 97021 x232 + 100395 x233 + 93117 x234
       + 97296 x235 + 108508 x236 + 102247 x237 + 96780 x238 + 100426 x239
       + 95523 x240 + 97415 x241 + 108836 x242 + 93981 x243 + 107874 x244
       + 106628 x245 + 101066 x246 + 94272 x247 + 101359 x248 + 96826 x249
       + 86973 x250 + 19578 x251 + 18673 x252 + 20581 x253 + 20318 x254
       + 18256 x255 + 20674 x256 + 18876 x257 + 18301 x258 + 21439 x259
       + 18796 x260 + 19047 x261 + 19166 x262 + 21074 x263 + 21714 x264
       + 21728 x265 + 20644 x266 + 19751 x267 + 21937 x268 + 20657 x269
       + 21402 x270 + 18207 x271 + 19220 x272 + 21026 x273 + 18581 x274
       + 19969 x275 + 21619 x276 + 18675 x277 + 21002 x278 + 19570 x279
       + 20944 x280 + 18554 x281 + 18783 x282 + 20862 x283 + 18702 x284
       + 19662 x285 + 20611 x286 + 18431 x287 + 21285 x288 + 18853 x289
       + 21814 x290 + 19938 x291 + 21239 x292 + 19395 x293 + 19604 x294
       + 18486 x295 + 18901 x296 + 20129 x297 + 18502 x298 + 21643 x299
       + 23181 x300
Subject To
 c1:   x4 + x6 - x11 + x19 + x37 - x44  = 0
 c2:   x54 + x56 - x61 + x69 + x87 - x94  = 0
 c3:   x104 + x106 - x111 + x119 + x137 - x144  = 0
 c4:   x154 + x156 - x161 + x169 + x187 - x194  = 0
 c5:   x204 + x206 - x211 + x219 + x237 - x244  = 1
 c6:   x3 - x7 - x10 + x34 + x46 + x50  = 0
 c7:   x53 - x57 - x60 + x84 + x96 + x100  = 0
 c8:   x103 - x107 - x110 + x134 + x146 + x150  = 0
 c9:   x153 - x157 - x160 + x184 + x196 + x200  = 0
 c10:  x203 - x207 - x210 + x234 + x246 + x250  = 0
 c11:  x7 - x20 + x39 + x40 + x41 - x43  = 0
 c12:  x57 - x70 + x89 + x90 + x91 - x93  = 0
 c13:  x107 - x120 + x139 + x140 + x141 - x143  = 0
 c14:  x157 - x170 + x189 + x190 + x191 - x193  = 0
 c15:  x207 - x220 + x239 + x240 + x241 - x243  = 0
 c16:  x9 - x13 + x14 + x15 + x18 - x24 - x32 - x39 + x49  = 0
 c17:  x59 - x63 + x64 + x65 + x68 - x74 - x82 - x89 + x99  = 0
 c18:  x109 - x113 + x114 + x115 + x118 - x124 - x132 - x139 + x149  = 0
 c19:  x159 - x163 + x164 + x165 + x168 - x174 - x182 - x189 + x199  = -1
 c20:  x209 - x213 + x214 + x215 + x218 - x224 - x232 - x239 + x249  = 0
 c21:  - x4 + x5 + x10 + x20 - x21 - x33 - x42 - x48  = 0
 c22:  - x54 + x55 + x60 + x70 - x71 - x83 - x92 - x98  = 0
 c23:  - x104 + x105 + x110 + x120 - x121 - x133 - x142 - x148  = -1
 c24:  - x154 + x155 + x160 + x170 - x171 - x183 - x192 - x198  = 0
 c25:  - x204 + x205 + x210 + x220 - x221 - x233 - x242 - x248  = 0
 c26:  x2 + x8 + x16 + x28 - x41 + x43 - x50  = 1
 c27:  x52 + x58 + x66 + x78 - x91 + x93 - x100  = 0
 c28:  x102 + x108 + x116 + x128 - x141 + x143 - x150  = 0
 c29:  x152 + x158 + x166 + x178 - x191 + x193 - x200  = 0
 c30:  x202 + x208 + x216 + x228 - x241 + x243 - x250  = 0
 c31:  - x2 - x3 + x11 - x12 + x21 + x23 - x27 - x29 - x31  = 0
 c32:  - x52 - x53 + x61 - x62 + x71 + x73 - x77 - x79 - x81  = 1
 c33:  - x102 - x103 + x111 - x112 + x121 + x123 - x127 - x129 - x131  = 0
 c34:  - x152 - x153 + x161 - x162 + x171 + x173 - x177 - x179 - x181  = 0
 c35:  - x202 - x203 + x211 - x212 + x221 + x223 - x227 - x229 - x231  = 0
 c36:  - x5 - x25 - x28 + x45  = 0
 c37:  - x55 - x75 - x78 + x95  = 0
 c38:  - x105 - x125 - x128 + x145  = 0
 c39:  - x155 - x175 - x178 + x195  = 0
 c40:  - x205 - x225 - x228 + x245  = -1
 c41:  x26 - x46 - x49  = 0
 c42:  x76 - x96 - x99  = 0
 c43:  x126 - x146 - x149  = 0
 c44:  x176 - x196 - x199  = 0
 c45:  x226 - x246 - x249  = 0
 c46:  - x15 - x17 - x26 + x27 + x30 + x35  = -1
 c47:  - x65 - x67 - x76 + x77 + x80 + x85  = 0
 c48:  - x115 - x117 - x126 + x127 + x130 + x135  = 0
 c49:  - x165 - x167 - x176 + x177 + x180 + x185  = 0
 c50:  - x215 - x217 - x226 + x227 + x230 + x235  = 0
 c51:  - x1 - x6 - x14 - x16 + x22 + x25 - x35  = 0
 c52:  - x51 - x56 - x64 - x66 + x72 + x75 - x85  = 0
 c53:  - x101 - x106 - x114 - x116 + x122 + x125 - x135  = 0
 c54:  - x151 - x156 - x164 - x166 + x172 + x175 - x185  = 0
 c55:  - x201 - x206 - x214 - x216 + x222 + x225 - x235  = 0
 c56:  - x34 - x37 - x45 + x48  = 0
 c57:  - x84 - x87 - x95 + x98  = -1
 c58:  - x134 - x137 - x145 + x148  = 1
 c59:  - x184 - x187 - x195 + x198  = 0
 c60:  - x234 - x237 - x245 + x248  = 0
 c61:  x1 + x12 + x17 - x18 - x23 - x30 + x32 - x36 - x38 + x42 + x47  = 0
 c62:  x51 + x62 + x67 - x68 - x73 - x80 + x82 - x86 - x88 + x92 + x97  = 0
 c63:  x101 + x112 + x117 - x118 - x123 - x130 + x132 - x136 - x138 + x142
       + x147  = 0
 c64:  x151 + x162 + x167 - x168 - x173 - x180 + x182 - x186 - x188 + x192
       + x197  = 1
 c65:  x201 + x212 + x217 - x218 - x223 - x230 + x232 - x236 - x238 + x242
       + x247  = 0
 c66:  x13 - x19 - x22 + x29 + x38 + x44 - x47  = 0
 c67:  x63 - x69 - x72 + x79 + x88 + x94 - x97  = 0
 c68:  x113 - x119 - x122 + x129 + x138 + x144 - x147  = 0
 c69:  x163 - x169 - x172 + x179 + x188 + x194 - x197  = 0
 c70:  x213 - x219 - x222 + x229 + x238 + x244 - x247  = 0
 c71:  - x8 - x9 + x24 + x31 + x33 + x36 - x40  = 0
 c72:  - x58 - x59 + x74 + x81 + x83 + x86 - x90  = 0
 c73:  - x108 - x109 + x124 + x131 + x133 + x136 - x140  = 0
 c74:  - x158 - x159 + x174 + x181 + x183 + x186 - x190  = 0
 c75:  - x208 - x209 + x224 + x231 + x233 + x236 - x240  = 0
 c76:  4 x1 + 4 x51 + 4 x101 + 4 x151 + 4 x201 - 10 x251 <= 0
 c77:  4 x2 + 4 x52 + 4 x102 + 4 x152 + 4 x202 - 9 x252 <= 0
 c78:  4 x3 + 4 x53 + 4 x103 + 4 x153 + 4 x203 - 10 x253 <= 0
 c79:  4 x4 + 4 x54 + 4 x104 + 4 x154 + 4 x204 - 10 x254 <= 0
 c80:  4 x5 + 4 x55 + 4 x105 + 4 x155 + 4 x205 - 10 x255 <= 0
 c81:  4 x6 + 4 x56 + 4 x106 + 4 x156 + 4 x206 - 11 x256 <= 0
 c82:  4 x7 + 4 x57 + 4 x107 + 4 x157 + 4 x207 - 11 x257 <= 0
 c83:  4 x8 + 4 x58 + 4 x108 + 4 x158 + 4 x208 - 9 x258 <= 0
 c84:  4 x9 + 4 x59 + 4 x109 + 4 x159 + 4 x209 - 11 x259 <= 0
 c85:  4 x10 + 4 x60 + 4 x110 + 4 x160 + 4 x210 - 9 x260 <= 0
 c86:  4 x11 + 4 x61 + 4 x111 + 4 x161 + 4 x211 - 10 x261 <= 0
 c87:  4 x12 + 4 x62 + 4 x112 + 4 x162 + 4 x212 - 9 x262 <= 0
 c88:  4 x13 + 4 x63 + 4 x113 + 4 x163 + 4 x213 - 9 x263 <= 0
 c89:  4 x14 + 4 x64 + 4 x114 + 4 x164 + 4 x214 - 9 x264 <= 0
 c90:  4 x15 + 4 x65 + 4 x115 + 4 x165 + 4 x215 - 11 x265 <= 0
 c91:  4 x16 + 4 x66 + 4 x116 + 4 x166 + 4 x216 - 10 x266 <= 0
 c92:  4 x17 + 4 x67 + 4 x117 + 4 x167 + 4 x217 - 9 x267 <= 0
 c93:  4 x18 + 4 x68 + 4 x118 + 4 x168 + 4 x218 - 10 x268 <= 0
 c94:  4 x19 + 4 x69 + 4 x119 + 4 x169 + 4 x219 - 9 x269 <= 0
 c95:  4 x20 + 4 x70 + 4 x120 + 4 x170 + 4 x220 - 10 x270 <= 0
 c96:  4 x21 + 4 x71 + 4 x121 + 4 x171 + 4 x221 - 9 x271 <= 0
 c97:  4 x22 + 4 x72 + 4 x122 + 4 x172 + 4 x222 - 10 x272 <= 0
 c98:  4 x23 + 4 x73 + 4 x123 + 4 x173 + 4 x223 - 10 x273 <= 0
 c99:  4 x24 + 4 x74 + 4 x124 + 4 x174 + 4 x224 - 11 x274 <= 0
 c100: 4 x25 + 4 x75 + 4 x125 + 4 x175 + 4 x225 - 11 x275 <= 0
 c101: 4 x26 + 4 x76 + 4 x126 + 4 x176 + 4 x226 - 10 x276 <= 0
 c102: 4 x27 + 4 x77 + 4 x127 + 4 x177 + 4 x227 - 9 x277 <= 0
 c103: 4 x28 + 4 x78 + 4 x128 + 4 x178 + 4 x228 - 11 x278 <= 0
 c104: 4 x29 + 4 x79 + 4 x129 + 4 x179 + 4 x229 - 10 x279 <= 0
 c105: 4 x30 + 4 x80 + 4 x130 + 4 x180 + 4 x230 - 9 x280 <= 0
 c106: 4 x31 + 4 x81 + 4 x131 + 4 x181 + 4 x231 - 10 x281 <= 0
 c107: 4 x32 + 4 x82 + 4 x132 + 4 x182 + 4 x232 - 11 x282 <= 0
 c108: 4 x33 + 4 x83 + 4 x133 + 4 x183 + 4 x233 - 10 x283 <= 0
 c109: 4 x34 + 4 x84 + 4 x134 + 4 x184 + 4 x234 - 11 x284 <= 0
 c110: 4 x35 + 4 x85 + 4 x135 + 4 x185 + 4 x235 - 9 x285 <= 0
 c111: 4 x36 + 4 x86 + 4 x136 + 4 x186 + 4 x236 - 9 x286 <= 0
 c112: 4 x37 + 4 x87 + 4 x137 + 4 x187 + 4 x237 - 10 x287 <= 0
 c113: 4 x38 + 4 x88 + 4 x138 + 4 x188 + 4 x238 - 11 x288 <= 0
 c114: 4 x39 + 4 x89 + 4 x139 + 4 x189 + 4 x239 - 9 x289 <= 0
 c115: 4 x40 + 4 x90 + 4 x140 + 4 x190 + 4 x240 - 9 x290 <= 0
 c116: 4 x41 + 4 x91 + 4 x141 + 4 x191 + 4 x241 - 11 x291 <= 0
 c117: 4 x42 + 4 x92 + 4 x142 + 4 x192 + 4 x242 - 10 x292 <= 0
 c118: 4 x43 + 4 x93 + 4 x143 + 4 x193 + 4 x243 - 10 x293 <= 0
 c119: 4 x44 + 4 x94 + 4 x144 + 4 x194 + 4 x244 - 10 x294 <= 0
 c120: 4 x45 + 4 x95 + 4 x145 + 4 x195 + 4 x245 - 10 x295 <= 0
 c121: 4 x46 + 4 x96 + 4 x146 + 4 x196 + 4 x246 - 11 x296 <= 0
 c122: 4 x47 + 4 x97 + 4 x147 + 4 x197 + 4 x247 - 11 x297 <= 0
 c123: 4 x48 + 4 x98 + 4 x148 + 4 x198 + 4 x248 - 11 x298 <= 0
 c124: 4 x49 + 4 x99 + 4 x149 + 4 x199 + 4 x249 - 11 x299 <= 0
 c125: 4 x50 + 4 x100 + 4 x150 + 4 x200 + 4 x250 - 10 x300 <= 0
Bounds
 0 <= x1 <= 1
 0 <= x2 <= 1
 0 <= x3 <= 1
 0 <= x4 <= 1
 0 <= x5 <= 1
 0 <= x6 <= 1
 0 <= x7 <= 1
 0 <= x8 <= 1
 0 <= x9 <= 1
 0 <= x10 <= 1
 0 <= x11 <= 1
 0 <= x12 <= 1
 0 <= x13 <= 1
 0 <= x14 <= 1
 0 <= x15 <= 1
 0 <= x16 <= 1
 0 <= x17 <= 1
 0 <= x18 <= 1
 0 <= x19 <= 1
 0 <= x20 <= 1
 0 <= x21 <= 1
 0 <= x22 <= 1
 0 <= x23 <= 1
 0 <= x24 <= 1
 0 <= x25 <= 1
 0 <= x26 <= 1
 0 <= x27 <= 1
 0 <= x28 <= 1
 0 <= x29 <= 1
 0 <= x30 <= 1
 0 <= x31 <= 1
 0 <= x32 <= 1
 0 <= x33 <= 1
 0 <= x34 <= 1
 0 <= x35 <= 1
 0 <= x36 <= 1
 0 <= x37 <= 1
 0 <= x38 <= 1
 0 <= x39 <= 1
 0 <= x40 <= 1
 0 <= x41 <= 1
 0 <= x42 <= 1
 0 <= x43 <= 1
 0 <= x44 <= 1
 0 <= x45 <= 1
 0 <= x46 <= 1
 0 <= x47 <= 1
 0 <= x48 <= 1
 0 <= x49 <= 1
 0 <= x50 <= 1
 0 <= x51 <= 1
 0 <= x52 <= 1
 0 <= x53 <= 1
 0 <= x54 <= 1
 0 <= x55 <= 1
 0 <= x56 <= 1
 0 <= x57 <= 1
 0 <= x58 <= 1
 0 <= x59 <= 1
 0 <= x60 <= 1
 0 <= x61 <= 1
 0 <= x62 <= 1
 0 <= x63 <= 1
 0 <= x64 <= 1
 0 <= x65 <= 1
 0 <= x66 <= 1
 0 <= x67 <= 1
 0 <= x68 <= 1
 0 <= x69 <= 1
 0 <= x70 <= 1
 0 <= x71 <= 1
 0 <= x72 <= 1
 0 <= x73 <= 1
 0 <= x74 <= 1
 0 <= x75 <= 1
 0 <= x76 <= 1
 0 <= x77 <= 1
 0 <= x78 <= 1
 0 <= x79 <= 1
 0 <= x80 <= 1
 0 <= x81 <= 1
 0 <= x82 <= 1
 0 <= x83 <= 1
 0 <= x84 <= 1
 0 <= x85 <= 1
 0 <= x86 <= 1
 0 <= x87 <= 1
 0 <= x88 <= 1
 0 <= x89 <= 1
 0 <= x90 <= 1
 0 <= x91 <= 1
 0 <= x92 <= 1
 0 <= x93 <= 1
 0 <= x94 <= 1
 0 <= x95 <= 1
 0 <= x96 <= 1
 0 <= x97 <= 1
 0 <= x98 <= 1
 0 <= x99 <= 1
 0 <= x100 <= 1
 0 <= x101 <= 1
 0 <= x102 <= 1
 0 <= x103 <= 1
 0 <= x104 <= 1
 0 <= x105 <= 1
 0 <= x106 <= 1
 0 <= x107 <= 1
 0 <= x108 <= 1
 0 <= x109 <= 1
 0 <= x110 <= 1
 0 <= x111 <= 1
 0 <= x112 <= 1
 0 <= x113 <= 1
 0 <= x114 <= 1
 0 <= x115 <= 1
 0 <= x116 <= 1
 0 <= x117 <= 1
 0 <= x118 <= 1
 0 <= x119 <= 1
 0 <= x120 <= 1
 0 <= x121 <= 1
 0 <= x122 <= 1
 0 <= x123 <= 1
 0 <= x124 <= 1
 0 <= x125 <= 1
 0 <= x126 <= 1
 0 <= x127 <= 1
 0 <= x128 <= 1
 0 <= x129 <= 1
 0 <= x130 <= 1
 0 <= x131 <= 1
 0 <= x132 <= 1
 0 <= x133 <= 1
 0 <= x134 <= 1
 0 <= x135 <= 1
 0 <= x136 <= 1
 0 <= x137 <= 1
 0 <= x138 <= 1
 0 <= x139 <= 1
 0 <= x140 <= 1
 0 <= x141 <= 1
 0 <= x142 <= 1
 0 <= x143 <= 1
 0 <= x144 <= 1
 0 <= x145 <= 1
 0 <= x146 <= 1
 0 <= x147 <= 1
 0 <= x148 <= 1
 0 <= x149 <= 1
 0 <= x150 <= 1
 0 <= x151 <= 1
 0 <= x152 <= 1
 0 <= x153 <= 1
 0 <= x154 <= 1
 0 <= x155 <= 1
 0 <= x156 <= 1
 0 <= x157 <= 1
 0 <= x158 <= 1
 0 <= x159 <= 1
 0 <= x160 <= 1
 0 <= x161 <= 1
 0 <= x162 <= 1
 0 <= x163 <= 1
 0 <= x164 <= 1
 0 <= x165 <= 1
 0 <= x166 <= 1
 0 <= x167 <= 1
 0 <= x168 <= 1
 0 <= x169 <= 1
 0 <= x170 <= 1
 0 <= x171 <= 1
 0 <= x172 <= 1
 0 <= x173 <= 1
 0 <= x174 <= 1
 0 <= x175 <= 1
 0 <= x176 <= 1
 0 <= x177 <= 1
 0 <= x178 <= 1
 0 <= x179 <= 1
 0 <= x180 <= 1
 0 <= x181 <= 1
 0 <= x182 <= 1
 0 <= x183 <= 1
 0 <= x184 <= 1
 0 <= x185 <= 1
 0 <= x186 <= 1
 0 <= x187 <= 1
 0 <= x188 <= 1
 0 <= x189 <= 1
 0 <= x190 <= 1
 0 <= x191 <= 1
 0 <= x192 <= 1
 0 <= x193 <= 1
 0 <= x194 <= 1
 0 <= x195 <= 1
 0 <= x196 <= 1
 0 <= x197 <= 1
 0 <= x198 <= 1
 0 <= x199 <= 1
 0 <= x200 <= 1
 0 <= x201 <= 1
 0 <= x202 <= 1
 0 <= x203 <= 1
 0 <= x204 <= 1
 0 <= x205 <= 1
 0 <= x206 <= 1
 0 <= x207 <= 1
 0 <= x208 <= 1
 0 <= x209 <= 1
 0 <= x210 <= 1
 0 <= x211 <= 1
 0 <= x212 <= 1
 0 <= x213 <= 1
 0 <= x214 <= 1
 0 <= x215 <= 1
 0 <= x216 <= 1
 0 <= x217 <= 1
 0 <= x218 <= 1
 0 <= x219 <= 1
 0 <= x220 <= 1
 0 <= x221 <= 1
 0 <= x222 <= 1
 0 <= x223 <= 1
 0 <= x224 <= 1
 0 <= x225 <= 1
 0 <= x226 <= 1
 0 <= x227 <= 1
 0 <= x228 <= 1
 0 <= x229 <= 1
 0 <= x230 <= 1
 0 <= x231 <= 1
 0 <= x232 <= 1
 0 <= x233 <= 1
 0 <= x234 <= 1
 0 <= x235 <= 1
 0 <= x236 <= 1
 0 <= x237 <= 1
 0 <= x238 <= 1
 0 <= x239 <= 1
 0 <= x240 <= 1
 0 <= x241 <= 1
 0 <= x242 <= 1
 0 <= x243 <= 1
 0 <= x244 <= 1
 0 <= x245 <= 1
 0 <= x246 <= 1
 0 <= x247 <= 1
 0 <= x248 <= 1
 0 <= x249 <= 1
 0 <= x250 <= 1
 0 <= x251 <= 1
 0 <= x252 <= 1
 0 <= x253 <= 1
 0 <= x254 <= 1
 0 <= x255 <= 1
 0 <= x256 <= 1
 0 <= x257 <= 1
 0 <= x258 <= 1
 0 <= x259 <= 1
 0 <= x260 <= 1
 0 <= x261 <= 1
 0 <= x262 <= 1
 0 <= x263 <= 1
 0 <= x264 <= 1
 0 <= x265 <= 1
 0 <= x266 <= 1
 0 <= x267 <= 1
 0 <= x268 <= 1
 0 <= x269 <= 1
 0 <= x270 <= 1
 0 <= x271 <= 1
 0 <= x272 <= 1
 0 <= x273 <= 1
 0 <= x274 <= 1
 0 <= x275 <= 1
 0 <= x276 <= 1
 0 <= x277 <= 1
 0 <= x278 <= 1
 0 <= x279 <= 1
 0 <= x280 <= 1
 0 <= x281 <= 1
 0 <= x282 <= 1
 0 <= x283 <= 1
 0 <= x284 <= 1
 0 <= x285 <= 1
 0 <= x286 <= 1
 0 <= x287 <= 1
 0 <= x288 <= 1
 0 <= x289 <= 1
 0 <= x290 <= 1
 0 <= x291 <= 1
 0 <= x292 <= 1
 0 <= x293 <= 1
 0 <= x294 <= 1
 0 <= x295 <= 1
 0 <= x296 <= 1
 0 <= x297 <= 1
 0 <= x298 <= 1
 0 <= x299 <= 1
 0 <= x300 <= 1
Binaries
 x251  x252  x253  x254  x255  x256  x257  x258  x259  x260  x261  x262  x263 
 x264  x265  x266  x267  x268  x269  x270  x271  x272  x273  x274  x275  x276 
 x277  x278  x279  x280  x281  x282  x283  x284  x285  x286  x287  x288  x289 
 x290  x291  x292  x293  x294  x295  x296  x297  x298  x299  x300 
End
